num_offers = 20;
num_halls = 10;
start=[29,2,47,57,84,4,47,8,42,72,55,8,48,2,24,24,31,13,16,92];
end=[96,23,55,100,100,23,76,96,66,95,74,92,95,70,52,77,79,63,43,98];
price=[5968,1492,132,3483,1400,673,1754,4308,1240,1929,1660,7056,4144,4285,1462,4431,598,4178,1235,470];
requirement=[272,542,674,329,230,882,338,811,455,386,940,681,834,314,576,257,305,501,269,478];
capacity=[207,912,876,286,823,779,456,827,954,972];
